{"lblp_lower": [817.1907224305162, 860.4882414907488, 873.3617783056122, 891.3000000000002, 891.6250000000002, 891.9714285714286, 892.0500000000002], "cuttingPlaneBendInfo": [{"tot_cut_value": 0, "TOT_gen_cut": 0, "tot_time_opt": 0, "max_time_opt": 0}, {"tot_cut_value": 0, "TOT_gen_cut": 0, "tot_time_opt": 0, "max_time_opt": 0}, {"tot_cut_value": 0, "TOT_gen_cut": 0, "tot_time_opt": 0, "max_time_opt": 0}, {"tot_cut_value": 0, "TOT_gen_cut": 0, "tot_time_opt": 0, "max_time_opt": 0}, {"tot_cut_value": 0, "TOT_gen_cut": 0, "tot_time_opt": 0, "max_time_opt": 0}, {"tot_cut_value": 0, "TOT_gen_cut": 0, "tot_time_opt": 0, "max_time_opt": 0}, {"tot_cut_value": 0, "TOT_gen_cut": 0, "tot_time_opt": 0, "max_time_opt": 0}], "time_compress": [0, 0, 0, 0, 0, 0, 0], "ub_lp": [940.8179545454545, 903.5, 903.5, 895.1857142857145, 892.1199999999999, 892.1199999999998, 892.1199999999999], "prob_sizes_at_start": [{"timeGraph": 52, "ngGraph": 52}, {"timeGraph": 78, "ngGraph": 74}, {"timeGraph": 96, "ngGraph": 77}, {"timeGraph": 113, "ngGraph": 79}, {"timeGraph": 117, "ngGraph": 82}, {"timeGraph": 120, "ngGraph": 83}, {"timeGraph": 117, "ngGraph": 83}], "prob_sizes_after_compress": [{"timeGraph": 3, "ngGraph": 46}, {"timeGraph": 31, "ngGraph": 35}, {"timeGraph": 42, "ngGraph": 35}, {"timeGraph": 48, "ngGraph": 31}, {"timeGraph": 48, "ngGraph": 29}, {"timeGraph": 52, "ngGraph": 33}, {"timeGraph": 48, "ngGraph": 30}], "prob_sizes_after_split": [{"timeGraph": 78, "ngGraph": 74}, {"timeGraph": 96, "ngGraph": 77}, {"timeGraph": 113, "ngGraph": 79}, {"timeGraph": 117, "ngGraph": 82}, {"timeGraph": 120, "ngGraph": 83}, {"timeGraph": 117, "ngGraph": 83}, {"timeGraph": 91, "ngGraph": 61}], "did_compress": [true, true, true, true, true, true, true], "lp_time_project": [0.30164074897766113, 0.0806281566619873, 0.07913494110107422, 0.08173894882202148, 0.06766200065612793, 0.07121109962463379, 0.07578492164611816], "lp_time_LB": [0.015991926193237305, 0.02241802215576172, 0.01910400390625, 0.01780986785888672, 0.010746002197265625, 0.010239839553833008, 0.010535001754760742], "ilp_time": [], "history_of_graphs_by_iter": [], "ROOT_LP_PRIOR_ADDING_CUTS": 892.0500000000002, "OUR_ilp_objective": 899.3000000000003, "OUR_MIP_Lower_Bound": 899.3, "OUR_ilp_time": 0.04805493354797363, "OUR_gurobi_MILP_str": "Gurobi Optimizer version 12.0.1 build v12.0.1rc0 (mac64[arm] - Darwin 24.5.0 24F74)\n\nCPU model: Apple M1\nThread count: 8 physical cores, 8 logical processors, using up to 8 threads\n\nNon-default parameters:\nTimeLimit  3000\n\nWLS license 2690165 - registered to Optym\nOptimize a model with 4781 rows, 2195 columns and 16429 nonzeros\nModel fingerprint: 0xb43a9bcc\nVariable types: 102 continuous, 2093 integer (1432 binary)\nCoefficient statistics:\n  Matrix range     [1e-01, 7e+01]\n  Objective range  [4e+00, 8e+01]\n  Bounds range     [1e-01, 2e+02]\n  RHS range        [1e+00, 1e+02]\nUsing branch priorities.\nPresolve removed 4421 rows and 1834 columns\nPresolve time: 0.01s\nPresolved: 360 rows, 361 columns, 1953 nonzeros\nVariable types: 38 continuous, 323 integer (292 binary)\nFound heuristic solution: objective 1021.6000000\nFound heuristic solution: objective 959.1000000\n\nRoot relaxation: objective 8.920500e+02, 306 iterations, 0.00 seconds (0.00 work units)\n\n    Nodes    |    Current Node    |     Objective Bounds      |     Work\n Expl Unexpl |  Obj  Depth IntInf | Incumbent    BestBd   Gap | It/Node Time\n\n     0     0  892.05000    0   21  959.10000  892.05000  6.99%     -    0s\nH    0     0                     918.9000000  892.05000  2.92%     -    0s\nH    0     0                     914.9000000  892.05000  2.50%     -    0s\nH    0     0                     913.3000000  892.05000  2.33%     -    0s\nH    0     0                     912.7000000  892.05000  2.26%     -    0s\nH    0     0                     907.5000000  892.05000  1.70%     -    0s\n     0     0  893.52500    0   41  907.50000  893.52500  1.54%     -    0s\nH    0     0                     905.0000000  894.25000  1.19%     -    0s\nH    0     0                     902.8000000  895.40833  0.82%     -    0s\n     0     0  895.40833    0   70  902.80000  895.40833  0.82%     -    0s\nH    0     0                     899.3000000  895.53333  0.42%     -    0s\n\nCutting planes:\n  Gomory: 5\n  Implied bound: 11\n  Clique: 6\n  MIR: 8\n  Zero half: 9\n  Relax-and-lift: 1\n\nExplored 1 nodes (381 simplex iterations) in 0.05 seconds (0.04 work units)\nThread count was 8 (of 8 available processors)\n\nSolution count 10: 899.3 902.8 905 ... 1021.6\n\nOptimal solution found (tolerance 1.00e-04)\nBest objective 8.993000000000e+02, best bound 8.993000000000e+02, gap 0.0000%\n", "jy_opt": {"ParetoEps": 1e-05, "turn_off_time_windows": false, "deactivate_time_graph": false, "deactivate_demand_graph": false, "epsilon": 0.0001, "weight_slack_projector": 1e-05, "weight_compress": 0.01, "num_cust_use": 50, "dem_step_sz": 1, "time_step_sz": 1, "use_compression": 1, "max_iterations_loop_compress_project": 50, "do_round_dist_times": 1, "my_shift_bet_time_win": 0.0001, "num_terms_per_bin_init_construct": 100, "allOneBig_init": 0, "min_inc_2_compress": 1e-05, "save_graph_each_iter": 0, "use_Xpress": 0, "use_ineq": false, "xpress_file_loc": "/Users/julian/Documents/FICO_Xpress_Config/xpauth.xpr", "run_baseline": 0, "verbose": 0, "use_NG_graph": 1, "num_NG": 9, "in_demo_mode": 0, "threshold_split": 0.1, "offset_cost_edge_project": 0, "use_classic_compress": 1, "use_classic_compress_last": 1, "num_thresh_split_projector": 1000, "lplb_solver": 4, "compresss_solver": 0, "proj_solver": 4, "use_julians_custom_lp_solver": 0, "do_ilp": 1, "roundingDiscretization_num_digits_keep": 3, "doExrtraRemovalEdgesLB": 0, "use_gurobi": 1, "max_ILP_time": 3000, "use_fancy_ng_graph": 1, "use_dem_graph": 0, "use_time_graph": 1, "num_multiplys_demand": 0, "DEBUG_ALLOW_DUMB_EDGES": 0, "add_all_ng_split_at_end": 0, "do_split_based_init": 0, "think_compress": [0], "use_delta_in_milp": 1, "use_delta_in_lp": 1, "turn_off_non_active_fg_project": 0, "use_new_valid_ineq": 0, "digit_mult_use": 10, "use_branch_on_g": true, "LAB_MP_ON": 0, "LAB_MP_neigh_use_power": 9, "LAB_MP_num_ineq_use": 10, "do_remove_actions_from_incumbant": true, "ub_use_remove": 899.3, "use_packing_in_construction": 1, "maxVarsAdd_in_ITER": 10, "use_ng_size_init": 0, "do_presolve": 0, "use_diving_ineq": 1, "BEND_MIN_LP_OBJECTIVE_CUT": 0.1, "BEND_USE_RAND": 0, "BEND_MAX_SIZE_CHOOSE_K": 230, "BEND_VAL_STOP_ADDING_CUTS": 100000000, "BEND_MY_SIZES_USE": [9], "NUMERICAL_BEND_OFFSET_COST_CUT": 0.0001, "NUMERICAL_BEND_EPSILON_MULT_PARETO_OBJ": 0.001, "NO_PARETO_NUMERICAL_BEND_OFFSET_COST_CUT": 0, "NO_PARETO_BEND_VAL_STOP_ADDING_CUTS": 1, "NO_PARETO_EPSILON_MAX_VAL_CON": 0.01, "BENDERS_NEIGH_SZ_USE": 9, "Actions_of_given_sol": [], "all_vars_binary": 1, "restore_after_each_step": 1, "use_ng": 1, "compress_solver": 1, "DEBUG_NG_turn_off_CLEAN": false, "max_nodes_split": Infinity}, "output_ilp_solution": {"delta_capRem_0": 1.0, "delta_timeRem_0": 49.0, "delta_capRem_1": 20.0, "delta_timeRem_1": 190.0, "delta_capRem_2": 3.6, "delta_timeRem_2": 124.0, "delta_capRem_3": 2.5, "delta_timeRem_3": 84.7, "delta_capRem_4": 10.2, "delta_timeRem_4": 206.0, "delta_capRem_5": 0.3, "delta_timeRem_5": 111.0, "delta_capRem_6": 8.8, "delta_timeRem_6": 155.1, "delta_capRem_7": 4.8, "delta_timeRem_7": 132.6, "delta_capRem_8": 13.6, "delta_timeRem_8": 138.2, "delta_capRem_9": 4.8, "delta_timeRem_9": 116.0, "delta_capRem_10": 6.0, "delta_timeRem_10": 143.0, "delta_capRem_11": 16.8, "delta_timeRem_11": 177.0, "delta_capRem_12": 2.3, "delta_timeRem_12": 51.0, "delta_capRem_13": 6.0, "delta_timeRem_13": 170.6, "delta_capRem_14": 6.2, "delta_timeRem_14": 166.3, "delta_capRem_15": 2.2, "delta_timeRem_15": 139.0, "delta_capRem_16": 0.2, "delta_timeRem_16": 53.0, "delta_capRem_17": 6.0, "delta_timeRem_17": 153.0, "delta_capRem_18": 8.3, "delta_timeRem_18": 134.0, "delta_capRem_19": 3.2, "delta_timeRem_19": 89.7, "delta_capRem_20": 14.9, "delta_timeRem_20": 148.0, "delta_capRem_21": 4.3, "delta_timeRem_21": 113.0, "delta_capRem_22": 16.9, "delta_timeRem_22": 166.1, "delta_capRem_23": 0.3, "delta_timeRem_23": 57.0, "delta_capRem_24": 0.6, "delta_timeRem_24": 44.0, "delta_capRem_25": 1.7, "delta_timeRem_25": 78.0, "delta_capRem_26": 20.0, "delta_timeRem_26": 203.0, "delta_capRem_27": 20.0, "delta_timeRem_27": 201.0, "delta_capRem_28": 14.9, "delta_timeRem_28": 147.0, "delta_capRem_29": 15.7, "delta_timeRem_29": 168.0, "delta_capRem_30": 18.4, "delta_timeRem_30": 180.4, "delta_capRem_31": 2.3, "delta_timeRem_31": 69.0, "delta_capRem_32": 20.0, "delta_timeRem_32": 203.0, "delta_capRem_33": 2.5, "delta_timeRem_33": 117.1, "delta_capRem_34": 1.1, "delta_timeRem_34": 97.0, "delta_capRem_35": 6.5, "delta_timeRem_35": 171.6, "delta_capRem_36": 3.1, "delta_timeRem_36": 76.0, "delta_capRem_37": 5.4, "delta_timeRem_37": 131.3, "delta_capRem_38": 20.0, "delta_timeRem_38": 196.0, "delta_capRem_39": 5.2, "delta_timeRem_39": 125.0, "delta_capRem_40": 4.8, "delta_timeRem_40": 143.0, "delta_capRem_41": 6.5, "delta_timeRem_41": 189.8, "delta_capRem_42": 3.8, "delta_timeRem_42": 103.2, "delta_capRem_43": 4.0, "delta_timeRem_43": 155.0, "delta_capRem_44": 7.6, "delta_timeRem_44": 177.1, "delta_capRem_45": 3.9, "delta_timeRem_45": 93.0, "delta_capRem_46": 9.2, "delta_timeRem_46": 189.0, "delta_capRem_47": 3.6, "delta_timeRem_47": 45.0, "delta_capRem_48": 6.6, "delta_timeRem_48": 112.0, "delta_capRem_49": 2.3, "delta_timeRem_49": 105.8, "act_0_51": 1, "act_1_14": 1, "act_2_49": 1, "act_3_24": 1, "act_4_44": 1, "act_5_51": 1, "act_6_18": 1, "act_7_45": 1, "act_8_33": 1, "act_9_19": 1, "act_10_9": 1, "act_11_28": 1, "act_12_51": 1, "act_13_43": 1, "act_14_37": 1, "act_15_5": 1, "act_16_51": 1, "act_17_7": 1, "act_18_48": 1, "act_19_31": 1, "act_20_39": 1, "act_21_3": 1, "act_22_40": 1, "act_23_51": 1, "act_24_51": 1, "act_25_51": 1, "act_26_30": 1, "act_27_11": 1, "act_28_2": 1, "act_29_8": 1, "act_30_6": 1, "act_31_51": 1, "act_32_29": 1, "act_33_34": 1, "act_34_23": 1, "act_35_10": 1, "act_36_12": 1, "act_37_42": 1, "act_38_22": 1, "act_39_25": 1, "act_40_21": 1, "act_41_13": 1, "act_42_36": 1, "act_43_15": 1, "act_44_17": 1, "act_45_16": 1, "act_46_35": 1, "act_47_51": 1, "act_48_47": 1, "act_49_0": 1, "act_50_1": 1, "act_50_4": 1, "act_50_20": 1, "act_50_26": 1, "act_50_27": 1, "act_50_32": 1, "act_50_38": 1, "act_50_41": 1, "act_50_46": 1}, "Actions_of_given_sol": "none just used source and sink terms", "actions_used": ["act_0_51", "act_1_14", "act_2_49", "act_3_24", "act_4_44", "act_5_51", "act_6_18", "act_7_45", "act_8_33", "act_9_19", "act_10_9", "act_11_28", "act_12_51", "act_13_43", "act_14_37", "act_15_5", "act_16_51", "act_17_7", "act_18_48", "act_19_31", "act_20_39", "act_21_3", "act_22_40", "act_23_51", "act_24_51", "act_25_51", "act_26_30", "act_27_11", "act_28_2", "act_29_8", "act_30_6", "act_31_51", "act_32_29", "act_33_34", "act_34_23", "act_35_10", "act_36_12", "act_37_42", "act_38_22", "act_39_25", "act_40_21", "act_41_13", "act_42_36", "act_43_15", "act_44_17", "act_45_16", "act_46_35", "act_47_51", "act_48_47", "act_49_0", "act_50_1", "act_50_4", "act_50_20", "act_50_26", "act_50_27", "act_50_32", "act_50_38", "act_50_41", "act_50_46"], "init_default_solution_is_empty": false, "objective_of_initial_sol": 2620.800000000001, "my_paths": "[[50, 1, 14, 37, 42, 36, 12, 51], [50, 4, 44, 17, 7, 45, 16, 51], [50, 20, 39, 25, 51], [50, 26, 30, 6, 18, 48, 47, 51], [50, 27, 11, 28, 2, 49, 0, 51], [50, 32, 29, 8, 33, 34, 23, 51], [50, 38, 22, 40, 21, 3, 24, 51], [50, 41, 13, 43, 15, 5, 51], [50, 46, 35, 10, 9, 19, 31, 51]]"}